(set-logic HORN)
(declare-fun state (Int (Array Int Int) (Array Int Int) (Array Int Int) (Array Int Int) Int Int (Array Int Int) (Array Int Int) Int Int Int Int Int Int Int Int Int Int Int Int Int Int Int Int Int Bool Bool Bool Bool Bool (Array Int Int)) Bool)
(assert (forall ((|hhv_ULTIMATE.start_L63_0_Int| Int) (|hbv_ULTIMATE.start_L53-3_1_Array_Int_Int| (Array Int Int)) (|hhv_ULTIMATE.start_L63_2_Array_Int_Int| (Array Int Int)) (|hhv_ULTIMATE.start_L63_3_Array_Int_Array_Int_Int| (Array Int Int)) (|hhv_ULTIMATE.start_L63_4_Array_Int_Array_Int_Int| (Array Int Int)) (|hhv_ULTIMATE.start_L63_5_Int| Int) (|hhv_ULTIMATE.start_L63_6_Int| Int) (|hhv_ULTIMATE.start_L63_7_Array_Int_Int| (Array Int Int)) (|hhv_ULTIMATE.start_L63_8_Array_Int_Int| (Array Int Int)) (|hhv_ULTIMATE.start_L63_9_Int| Int) (|hhv_ULTIMATE.start_L63_10_Int| Int) (|hhv_ULTIMATE.start_L63_11_Int| Int) (|hbv_ULTIMATE.start_L53-3_12_Int| Int) (|hbv_ULTIMATE.start_L53-3_13_Int| Int) (|hhv_ULTIMATE.start_L63_14_Int| Int) (|hhv_ULTIMATE.start_L63_15_Int| Int) (|hhv_ULTIMATE.start_L63_16_Int| Int) (|hhv_ULTIMATE.start_L63_17_Int| Int) (|hbv_ULTIMATE.start_L53-3_18_Int| Int) (|hhv_ULTIMATE.start_L63_19_Int| Int) (|hbv_ULTIMATE.start_L53-3_20_Int| Int) (|hhv_ULTIMATE.start_L63_21_Int| Int) (|hhv_ULTIMATE.start_L63_22_Int| Int) (|hhv_ULTIMATE.start_L63_23_Int| Int) (|hbv_ULTIMATE.start_L53-3_24_Int| Int) (|hhv_ULTIMATE.start_L63_25_Int| Int) (|hhv_ULTIMATE.start_L63_26_Bool| Bool) (|.loc.5| Bool) (|.loc.6| Bool) (|.loc.7| Bool) (|.loc.8| Bool) (|hbv_ULTIMATE.start_L-1_1_Array_Int_Int| (Array Int Int)) (|.x.750| Int) (|.x.748| (Array Int Int)) (|.x.746| Int) (|.x.744| (Array Int Int)) (|.x.740| Int) (|.x.742| (Array Int Int)) (|.x.757| Int) (|.x.760| Int) (|.x.766| Bool) (|.x.741| (Array Int Int)) (|.x.754| Int) (|.x.761| Int) (|.x.763| Int) (|.x.765| Int) (|.x.752| Int) (|.x.753| Int) (|.x.758| Int) (|.x.764| Int) (|.x.759| Int) (|.loc.10| Bool) (|.loc.11| Bool) (|.loc.12| Bool) (|.loc.9| Bool) (|.x.756| Int) (|.x.762| Int) (|.x.743| (Array Int Int)) (|.x.747| (Array Int Int)) (|.x.745| Int) (|.x.749| Int) (|.x.751| Int) (|.x.755| Int) (|.xtv.1| (Array Int Int))) (=> (and (and (and .loc.7 (and .loc.5 .loc.6)) (not .loc.8)) (and (and (and (and (and (not hhv_ULTIMATE.start_L63_26_Bool) (= hbv_ULTIMATE.start_L53-3_1_Array_Int_Int hhv_ULTIMATE.start_L63_2_Array_Int_Int)) (= hhv_ULTIMATE.start_L63_7_Array_Int_Int hhv_ULTIMATE.start_L63_8_Array_Int_Int)) (= hhv_ULTIMATE.start_L63_5_Int hhv_ULTIMATE.start_L63_6_Int)) (= hhv_ULTIMATE.start_L63_3_Array_Int_Array_Int_Int hhv_ULTIMATE.start_L63_4_Array_Int_Array_Int_Int)) (= hhv_ULTIMATE.start_L63_9_Int hhv_ULTIMATE.start_L63_10_Int))) (state |hhv_ULTIMATE.start_L63_0_Int| |hbv_ULTIMATE.start_L53-3_1_Array_Int_Int| |hhv_ULTIMATE.start_L63_2_Array_Int_Int| |hhv_ULTIMATE.start_L63_3_Array_Int_Array_Int_Int| |hhv_ULTIMATE.start_L63_4_Array_Int_Array_Int_Int| |hhv_ULTIMATE.start_L63_5_Int| |hhv_ULTIMATE.start_L63_6_Int| |hhv_ULTIMATE.start_L63_7_Array_Int_Int| |hhv_ULTIMATE.start_L63_8_Array_Int_Int| |hhv_ULTIMATE.start_L63_9_Int| |hhv_ULTIMATE.start_L63_10_Int| |hhv_ULTIMATE.start_L63_11_Int| |hbv_ULTIMATE.start_L53-3_12_Int| |hbv_ULTIMATE.start_L53-3_13_Int| |hhv_ULTIMATE.start_L63_14_Int| |hhv_ULTIMATE.start_L63_15_Int| |hhv_ULTIMATE.start_L63_16_Int| |hhv_ULTIMATE.start_L63_17_Int| |hbv_ULTIMATE.start_L53-3_18_Int| |hhv_ULTIMATE.start_L63_19_Int| |hbv_ULTIMATE.start_L53-3_20_Int| |hhv_ULTIMATE.start_L63_21_Int| |hhv_ULTIMATE.start_L63_22_Int| |hhv_ULTIMATE.start_L63_23_Int| |hbv_ULTIMATE.start_L53-3_24_Int| |hhv_ULTIMATE.start_L63_25_Int| |hhv_ULTIMATE.start_L63_26_Bool| |.loc.5| |.loc.6| |.loc.7| |.loc.8| |hbv_ULTIMATE.start_L-1_1_Array_Int_Int|))))
(assert (forall ((|hhv_ULTIMATE.start_L63_0_Int| Int) (|hbv_ULTIMATE.start_L53-3_1_Array_Int_Int| (Array Int Int)) (|hhv_ULTIMATE.start_L63_2_Array_Int_Int| (Array Int Int)) (|hhv_ULTIMATE.start_L63_3_Array_Int_Array_Int_Int| (Array Int Int)) (|hhv_ULTIMATE.start_L63_4_Array_Int_Array_Int_Int| (Array Int Int)) (|hhv_ULTIMATE.start_L63_5_Int| Int) (|hhv_ULTIMATE.start_L63_6_Int| Int) (|hhv_ULTIMATE.start_L63_7_Array_Int_Int| (Array Int Int)) (|hhv_ULTIMATE.start_L63_8_Array_Int_Int| (Array Int Int)) (|hhv_ULTIMATE.start_L63_9_Int| Int) (|hhv_ULTIMATE.start_L63_10_Int| Int) (|hhv_ULTIMATE.start_L63_11_Int| Int) (|hbv_ULTIMATE.start_L53-3_12_Int| Int) (|hbv_ULTIMATE.start_L53-3_13_Int| Int) (|hhv_ULTIMATE.start_L63_14_Int| Int) (|hhv_ULTIMATE.start_L63_15_Int| Int) (|hhv_ULTIMATE.start_L63_16_Int| Int) (|hhv_ULTIMATE.start_L63_17_Int| Int) (|hbv_ULTIMATE.start_L53-3_18_Int| Int) (|hhv_ULTIMATE.start_L63_19_Int| Int) (|hbv_ULTIMATE.start_L53-3_20_Int| Int) (|hhv_ULTIMATE.start_L63_21_Int| Int) (|hhv_ULTIMATE.start_L63_22_Int| Int) (|hhv_ULTIMATE.start_L63_23_Int| Int) (|hbv_ULTIMATE.start_L53-3_24_Int| Int) (|hhv_ULTIMATE.start_L63_25_Int| Int) (|hhv_ULTIMATE.start_L63_26_Bool| Bool) (|.loc.5| Bool) (|.loc.6| Bool) (|.loc.7| Bool) (|.loc.8| Bool) (|hbv_ULTIMATE.start_L-1_1_Array_Int_Int| (Array Int Int)) (|.x.750| Int) (|.x.748| (Array Int Int)) (|.x.746| Int) (|.x.744| (Array Int Int)) (|.x.740| Int) (|.x.742| (Array Int Int)) (|.x.757| Int) (|.x.760| Int) (|.x.766| Bool) (|.x.741| (Array Int Int)) (|.x.754| Int) (|.x.761| Int) (|.x.763| Int) (|.x.765| Int) (|.x.752| Int) (|.x.753| Int) (|.x.758| Int) (|.x.764| Int) (|.x.759| Int) (|.loc.10| Bool) (|.loc.11| Bool) (|.loc.12| Bool) (|.loc.9| Bool) (|.x.756| Int) (|.x.762| Int) (|.x.743| (Array Int Int)) (|.x.747| (Array Int Int)) (|.x.745| Int) (|.x.749| Int) (|.x.751| Int) (|.x.755| Int) (|.xtv.1| (Array Int Int))) (=> (and (state |hhv_ULTIMATE.start_L63_0_Int| |hbv_ULTIMATE.start_L53-3_1_Array_Int_Int| |hhv_ULTIMATE.start_L63_2_Array_Int_Int| |hhv_ULTIMATE.start_L63_3_Array_Int_Array_Int_Int| |hhv_ULTIMATE.start_L63_4_Array_Int_Array_Int_Int| |hhv_ULTIMATE.start_L63_5_Int| |hhv_ULTIMATE.start_L63_6_Int| |hhv_ULTIMATE.start_L63_7_Array_Int_Int| |hhv_ULTIMATE.start_L63_8_Array_Int_Int| |hhv_ULTIMATE.start_L63_9_Int| |hhv_ULTIMATE.start_L63_10_Int| |hhv_ULTIMATE.start_L63_11_Int| |hbv_ULTIMATE.start_L53-3_12_Int| |hbv_ULTIMATE.start_L53-3_13_Int| |hhv_ULTIMATE.start_L63_14_Int| |hhv_ULTIMATE.start_L63_15_Int| |hhv_ULTIMATE.start_L63_16_Int| |hhv_ULTIMATE.start_L63_17_Int| |hbv_ULTIMATE.start_L53-3_18_Int| |hhv_ULTIMATE.start_L63_19_Int| |hbv_ULTIMATE.start_L53-3_20_Int| |hhv_ULTIMATE.start_L63_21_Int| |hhv_ULTIMATE.start_L63_22_Int| |hhv_ULTIMATE.start_L63_23_Int| |hbv_ULTIMATE.start_L53-3_24_Int| |hhv_ULTIMATE.start_L63_25_Int| |hhv_ULTIMATE.start_L63_26_Bool| |.loc.5| |.loc.6| |.loc.7| |.loc.8| |hbv_ULTIMATE.start_L-1_1_Array_Int_Int|) (let ((.def_44 (not .loc.8))) (let ((.def_89 (= hhv_ULTIMATE.start_L63_14_Int .x.754))) (let ((.def_92 (= hhv_ULTIMATE.start_L63_21_Int .x.761))) (let ((.def_95 (= hhv_ULTIMATE.start_L63_23_Int .x.763))) (let ((.def_98 (= hhv_ULTIMATE.start_L63_25_Int .x.765))) (let ((.def_100 (= hhv_ULTIMATE.start_L63_26_Bool .x.766))) (let ((.def_105 (= .x.754 0))) (let ((.def_108 (not .loc.7))) (let ((.def_117 (select hhv_ULTIMATE.start_L63_3_Array_Int_Array_Int_Int hbv_ULTIMATE.start_L53-3_18_Int))) (let ((.def_120 (select .def_117 (+ hbv_ULTIMATE.start_L53-3_12_Int (+ (* 4 hhv_ULTIMATE.start_L63_19_Int) (* 4 (* hhv_ULTIMATE.start_L63_15_Int hhv_ULTIMATE.start_L63_16_Int))))))) (let ((.def_127 (<= hhv_ULTIMATE.start_L63_15_Int hhv_ULTIMATE.start_L63_19_Int))) (let ((.def_128 (not .def_127))) (let ((.def_134 (select hhv_ULTIMATE.start_L63_3_Array_Int_Array_Int_Int hbv_ULTIMATE.start_L53-3_13_Int))) (let ((.def_138 (or hhv_ULTIMATE.start_L63_26_Bool (and (and (= .x.765 .def_120) (and (= .x.763 (ite (= .x.761 .x.765) 1 0)) (and (= .x.754 .x.763) .def_128))) (= .x.761 (select .def_134 (+ (* 4 hhv_ULTIMATE.start_L63_19_Int) (+ hbv_ULTIMATE.start_L53-3_24_Int (* 4 (* hhv_ULTIMATE.start_L63_15_Int hhv_ULTIMATE.start_L63_16_Int)))))))))) (let ((.def_140 (= hbv_ULTIMATE.start_L53-3_1_Array_Int_Int .x.741))) (let ((.def_143 (= hbv_ULTIMATE.start_L53-3_12_Int .x.752))) (let ((.def_146 (= hbv_ULTIMATE.start_L53-3_13_Int .x.753))) (let ((.def_148 (= hhv_ULTIMATE.start_L63_17_Int .x.757))) (let ((.def_151 (= hbv_ULTIMATE.start_L53-3_18_Int .x.758))) (let ((.def_153 (= hbv_ULTIMATE.start_L53-3_20_Int .x.760))) (let ((.def_156 (= hbv_ULTIMATE.start_L53-3_24_Int .x.764))) (let ((.def_160 (= hhv_ULTIMATE.start_L63_19_Int .x.759))) (let ((.def_169 (not .loc.9))) (let ((.def_175 (= (+ hhv_ULTIMATE.start_L63_19_Int (* (- 1) .x.759)) (- 1)))) (let ((.def_189 (not .loc.12))) (let ((.def_191 (not .loc.11))) (let ((.def_193 (not .loc.10))) (let ((.def_195 (not .loc.5))) (let ((.def_199 (and hhv_ULTIMATE.start_L63_26_Bool .def_89))) (let ((.def_224 (and .def_100 (and .def_98 (and .def_95 (and .def_92 (and .def_89 .def_160))))))) (let ((.def_225 (and .loc.7 .def_224))) (let ((.def_239 (<= hhv_ULTIMATE.start_L63_15_Int hhv_ULTIMATE.start_L63_16_Int))) (let ((.def_240 (or hhv_ULTIMATE.start_L63_26_Bool .def_239))) (let ((.def_246 (and .def_100 (and .def_98 (and .def_95 (and .def_89 .def_92)))))) (let ((.def_262 (= .x.759 0))) (let ((.def_264 (or hhv_ULTIMATE.start_L63_26_Bool (and (not .def_239) .def_262)))) (let ((.def_267 (not .loc.6))) (let ((.def_269 (= hhv_ULTIMATE.start_L63_16_Int .x.756))) (let ((.def_290 (or hhv_ULTIMATE.start_L63_26_Bool (= (+ hhv_ULTIMATE.start_L63_16_Int (* (- 1) .x.756)) (- 1))))) (let ((.def_335 (and .loc.5 .def_246))) (let ((.def_350 (= .x.756 0))) (let ((.def_352 (or hhv_ULTIMATE.start_L63_26_Bool (and .def_262 .def_350)))) (let ((.def_360 (and .def_100 (and .def_98 (and .def_95 (and .def_92 (and .def_160 (and .def_199 .def_269)))))))) (let ((.def_361 (and .loc.5 .def_360))) (let ((.def_377 (and .def_89 .def_269))) (let ((.def_382 (and .def_100 (and .def_98 (and .def_95 (and .def_92 (and .def_160 .def_377))))))) (let ((.def_383 (and .loc.5 .def_382))) (let ((.def_398 (or hhv_ULTIMATE.start_L63_26_Bool .def_127))) (let ((.def_498 (= hhv_ULTIMATE.start_L63_22_Int .x.762))) (let ((.def_500 (= hhv_ULTIMATE.start_L63_3_Array_Int_Array_Int_Int .x.743))) (let ((.def_530 (and hhv_ULTIMATE.start_L63_26_Bool .def_500))) (let ((.def_555 (and .def_89 .def_500))) (let ((.def_556 (and .def_269 .def_555))) (let ((.def_626 (= hhv_ULTIMATE.start_L63_7_Array_Int_Int .x.747))) (let ((.def_628 (= hhv_ULTIMATE.start_L63_5_Int .x.745))) (let ((.def_631 (= hhv_ULTIMATE.start_L63_9_Int .x.749))) (let ((.def_632 (and (and .def_626 .def_628) .def_631))) (let ((.def_634 (= hhv_ULTIMATE.start_L63_11_Int .x.751))) (let ((.def_637 (= hhv_ULTIMATE.start_L63_15_Int .x.755))) (let ((.def_658 (store hbv_ULTIMATE.start_L-1_1_Array_Int_Int .x.753 1))) (let ((.def_733 (and .def_269 (and .def_637 (and .def_89 (and .def_634 (and .def_631 (and .def_626 (and .def_500 .def_628))))))))) (and (and (= hhv_ULTIMATE.start_L63_10_Int .x.750) (and (= hhv_ULTIMATE.start_L63_8_Array_Int_Int .x.748) (and (= hhv_ULTIMATE.start_L63_6_Int .x.746) (and (= hhv_ULTIMATE.start_L63_4_Array_Int_Array_Int_Int .x.744) (and (= hhv_ULTIMATE.start_L63_0_Int .x.740) (= hhv_ULTIMATE.start_L63_2_Array_Int_Int .x.742)))))) (or (or (or (or (or (and (or (or (or (or (or (and (or (or (or (or (or (or (or (or (or (or (or (or (and (or (or (or (or (and (or (and .loc.8 (and .loc.7 (and (or (= .x.757 .x.760) .x.766) (and (and (and (and (and (or hhv_ULTIMATE.start_L63_26_Bool (and (= .x.760 0) (= (store (store hbv_ULTIMATE.start_L53-3_1_Array_Int_Int hbv_ULTIMATE.start_L53-3_13_Int 0) hbv_ULTIMATE.start_L53-3_18_Int 0) .x.741))) .def_89) .def_92) .def_95) .def_98) .def_100)))) (and (and (and (and (and (and (and (and (and (or hhv_ULTIMATE.start_L63_26_Bool .def_105) (and (and .def_44 .x.766) .def_108)) .def_138) .def_140) .def_143) .def_146) .def_148) .def_151) .def_153) .def_156)) (and (and (and (and (and .loc.5 .def_160) .loc.10) .loc.11) .loc.12) .def_169)) (and (or hhv_ULTIMATE.start_L63_26_Bool .def_175) (and (and (and (and (and .def_156 (and .def_153 (and .def_151 (and .def_148 (and .def_146 (and .def_143 (and .def_140 (and .def_108 (and .def_44 (and .loc.9 (and .def_100 (and .def_89 .def_95)))))))))))) .def_189) .def_191) .def_193) .def_195))) (and .def_195 (and .def_193 (and .def_156 (and .def_153 (and .def_151 (and .def_148 (and .def_146 (and .def_143 (and .def_140 (and .loc.12 (and .loc.11 (and .loc.9 (and .loc.8 (and .loc.7 (and .def_100 (and .def_98 (and .def_95 (and .def_92 (and .def_160 .def_199)))))))))))))))))))) (and (and .def_195 (and .def_193 (and .def_156 (and .def_153 (and .def_151 (and .def_148 (and .def_146 (and .def_143 (and .def_140 (and .loc.12 (and .loc.11 (and .loc.9 (and .loc.8 .def_225))))))))))))) .def_240)) (and (and .def_195 (and .def_193 (and .def_191 (and .def_189 (and .def_156 (and .def_153 (and .def_151 (and .def_148 (and .def_146 (and .def_143 (and .def_140 (and .loc.9 (and .loc.8 (and .loc.7 .def_246)))))))))))))) .def_264)) (and .def_267 .def_269)) (and (and .def_195 (and .def_193 (and .def_156 (and .def_153 (and .def_151 (and .def_148 (and .def_146 (and .def_143 (and .def_140 (and .def_108 (and .def_44 (and .def_169 (and .loc.12 (and .loc.11 (and .loc.6 .def_224))))))))))))))) .def_290)) (and (or .x.766 (not .def_105)) (and .def_193 (and .def_191 (and .def_189 (and .def_156 (and .def_153 (and .def_151 (and .def_148 (and .def_146 (and .def_143 (and .def_140 (and .def_138 (and .def_108 (and .def_44 (and .def_169 (and .def_267 (and .loc.5 (and .def_100 (and .def_160 .def_269)))))))))))))))))))) (and .def_193 (and .def_191 (and .def_189 (and .def_156 (and .def_153 (and .def_151 (and .def_148 (and .def_146 (and .def_143 (and .def_140 (and .def_138 (and .def_108 (and .def_44 (and .def_169 (and .def_267 (and .loc.5 (and .def_160 (and .def_269 (and hhv_ULTIMATE.start_L63_26_Bool .x.766)))))))))))))))))))) (and (and .def_193 (and .def_156 (and .def_153 (and .def_151 (and .def_148 (and .def_146 (and .def_143 (and .def_140 (and .def_108 (and .def_169 (and .loc.12 (and .loc.11 (and .loc.8 (and .loc.6 .def_335)))))))))))))) .def_352)) (and .def_191 (and .def_189 (and .def_156 (and .def_153 (and .def_151 (and .def_148 (and .def_146 (and .def_143 (and .def_140 (and .def_108 (and .def_44 (and .def_169 (and .loc.10 (and .def_267 .def_361))))))))))))))) (and (and .def_191 (and .def_189 (and .def_156 (and .def_153 (and .def_151 (and .def_148 (and .def_146 (and .def_143 (and .def_140 (and .def_108 (and .def_44 (and .def_169 (and .loc.10 (and .def_267 .def_383)))))))))))))) .def_398)) (and .def_195 (and .def_191 (and .def_156 (and .def_153 (and .def_151 (and .def_148 (and .def_146 (and .def_143 (and .def_140 (and .def_108 (and .loc.12 (and .loc.10 (and .loc.9 (and .loc.8 (and .loc.6 .def_360)))))))))))))))) (and .def_240 (and .def_195 (and .def_191 (and .def_156 (and .def_153 (and .def_151 (and .def_148 (and .def_146 (and .def_143 (and .def_140 (and .def_108 (and .loc.12 (and .loc.10 (and .loc.9 (and .loc.8 (and .loc.6 .def_382))))))))))))))))) (and .def_290 (and .def_195 (and .def_191 (and .def_156 (and .def_153 (and .def_151 (and .def_148 (and .def_146 (and .def_143 (and .def_140 (and .def_44 (and .def_169 (and .loc.12 (and .loc.10 (and .def_225 .def_267)))))))))))))))) (and .def_352 (and .def_191 (and .def_156 (and .def_153 (and .def_151 (and .def_148 (and .def_146 (and .def_143 (and .def_140 (and .def_108 (and .def_169 (and .loc.12 (and .loc.10 (and .def_267 (and .loc.8 .def_335)))))))))))))))) (and .def_193 (and .def_189 (and .def_156 (and .def_153 (and .def_151 (and .def_148 (and .def_146 (and .def_143 (and .def_140 (and .def_108 (and .def_44 (and .def_169 (and .loc.11 (and .loc.6 .def_361))))))))))))))) (and .def_398 (and .def_193 (and .def_189 (and .def_156 (and .def_153 (and .def_151 (and .def_148 (and .def_146 (and .def_143 (and .def_140 (and .def_108 (and .def_44 (and .def_169 (and .loc.11 (and .loc.6 .def_383)))))))))))))))) (and .def_498 .def_500)) (and (or hhv_ULTIMATE.start_L63_26_Bool (and .def_128 (and .def_175 (= .x.743 (store hhv_ULTIMATE.start_L63_3_Array_Int_Array_Int_Int hbv_ULTIMATE.start_L53-3_13_Int (store .def_134 (+ (* 4 hhv_ULTIMATE.start_L63_19_Int) (+ hbv_ULTIMATE.start_L53-3_24_Int (* 4 (* hhv_ULTIMATE.start_L63_15_Int hhv_ULTIMATE.start_L63_16_Int)))) .def_120)))))) (and .def_191 (and .def_189 (and .def_156 (and .def_153 (and .def_151 (and .def_148 (and .def_146 (and .def_143 (and .def_140 (and .def_108 (and .def_44 (and .loc.10 (and .loc.9 (and .loc.6 (and .loc.5 (and .def_100 (and .def_98 (and .def_95 (and .def_92 .def_377))))))))))))))))))))) (and .def_195 (and .def_193 (and .def_191 (and .def_156 (and .def_153 (and .def_151 (and .def_148 (and .def_146 (and .def_143 (and .def_140 (and .def_108 (and .loc.12 (and .loc.9 (and .def_267 (and .loc.8 (and .def_100 (and .def_98 (and .def_95 (and .def_498 (and .def_92 (and .def_160 (and .def_269 (and .def_89 .def_530)))))))))))))))))))))))) (and .def_240 (and .def_195 (and .def_193 (and .def_191 (and .def_156 (and .def_153 (and .def_151 (and .def_148 (and .def_146 (and .def_143 (and .def_140 (and .def_108 (and .loc.12 (and .loc.9 (and .def_267 (and .loc.8 (and .def_100 (and .def_98 (and .def_95 (and .def_498 (and .def_92 (and .def_160 .def_556))))))))))))))))))))))) (and .def_264 (and .def_195 (and .def_191 (and .def_189 (and .def_156 (and .def_153 (and .def_151 (and .def_148 (and .def_146 (and .def_143 (and .def_140 (and .def_108 (and .loc.10 (and .loc.9 (and .loc.8 (and .loc.6 (and .def_100 (and .def_98 (and .def_95 (and .def_498 (and .def_92 .def_556)))))))))))))))))))))) (and .def_290 (and .def_195 (and .def_193 (and .def_191 (and .def_156 (and .def_153 (and .def_151 (and .def_148 (and .def_146 (and .def_143 (and .def_140 (and .def_44 (and .def_169 (and .loc.12 (and .loc.7 (and .loc.6 (and .def_100 (and .def_98 (and .def_95 (and .def_498 (and .def_92 (and .def_160 .def_555))))))))))))))))))))))) (and (and .def_632 .def_634) .def_637)) (and (or hhv_ULTIMATE.start_L63_26_Bool (and (and (= .x.745 0) (= .x.749 0)) (= hbv_ULTIMATE.start_L-1_1_Array_Int_Int (store hbv_ULTIMATE.start_L53-3_1_Array_Int_Int 0 0)))) (and (or .x.766 (and (and (and (and (and .def_262 (and (and (and .def_350 (and (and (and (not (<= .x.740 .x.753)) (and (= .x.755 1000) (not (= .x.753 0)))) (not (<= .x.740 .x.758))) (= (select .def_658 .x.758) 0))) (= .x.764 0)) (not (= .x.758 0)))) (= .x.741 (store .def_658 .x.758 1))) (= (select hbv_ULTIMATE.start_L-1_1_Array_Int_Int .x.753) 0)) (= .x.752 0)) (= .x.747 (store (store hhv_ULTIMATE.start_L63_7_Array_Int_Int .x.753 (* 4 (* .x.755 .x.755))) .x.758 (* 4 (* .x.755 .x.755)))))) (and .def_193 (and .def_191 (and .def_148 (and .def_44 (and .def_169 (and .loc.12 (and .loc.7 (and .loc.6 (and .loc.5 (and .def_100 (and .def_95 .def_555)))))))))))))) (and .def_189 (and .def_156 (and .def_153 (and .def_151 (and .def_148 (and .def_146 (and .def_143 (and .def_140 (and .def_44 (and .def_169 (and .loc.11 (and .loc.10 (and .def_267 (and .loc.7 (and .loc.5 (and .def_100 (and .def_98 (and .def_95 (and .def_498 (and .def_92 (and .def_160 (and .def_269 (and .def_637 (and .def_89 (and .def_634 (and .def_631 (and .def_626 (and .def_530 .def_628))))))))))))))))))))))))))))) (and .def_398 (and .def_189 (and .def_156 (and .def_153 (and .def_151 (and .def_148 (and .def_146 (and .def_143 (and .def_140 (and .def_44 (and .def_169 (and .loc.11 (and .loc.10 (and .def_267 (and .loc.7 (and .loc.5 (and .def_100 (and .def_98 (and .def_95 (and .def_498 (and .def_92 (and .def_160 .def_733))))))))))))))))))))))) (and (or hhv_ULTIMATE.start_L63_26_Bool (and (and .def_175 (and .def_128 (and (= .x.743 (store hhv_ULTIMATE.start_L63_3_Array_Int_Array_Int_Int hbv_ULTIMATE.start_L53-3_18_Int (store .def_117 (+ hbv_ULTIMATE.start_L53-3_12_Int (+ (* 4 hhv_ULTIMATE.start_L63_19_Int) (* 4 (* hhv_ULTIMATE.start_L63_15_Int hhv_ULTIMATE.start_L63_16_Int)))) hhv_ULTIMATE.start_L63_11_Int))) (<= hhv_ULTIMATE.start_L63_11_Int 2147483647)))) (<= (- 2147483648) hhv_ULTIMATE.start_L63_11_Int))) (and .def_193 (and .def_189 (and .def_156 (and .def_153 (and .def_151 (and .def_148 (and .def_146 (and .def_143 (and .def_140 (and .def_44 (and .loc.11 (and .loc.9 (and .def_267 (and .loc.7 (and .loc.5 (and .def_100 (and .def_98 (and .def_95 (and .def_498 (and .def_92 (and .def_269 (and .def_637 (and .def_89 .def_632))))))))))))))))))))))))) (and .def_264 (and .def_195 (and .def_193 (and .def_189 (and .def_156 (and .def_153 (and .def_151 (and .def_148 (and .def_146 (and .def_143 (and .def_140 (and .def_108 (and .loc.11 (and .loc.9 (and .def_267 (and .loc.8 (and .def_100 (and .def_98 (and .def_95 (and .def_498 (and .def_92 .def_733))))))))))))))))))))))))))))))))))))))))))))))))))))))))))))))))))))))))))))))))))))) (state |.x.740| |.x.741| |.x.742| |.x.743| |.x.744| |.x.745| |.x.746| |.x.747| |.x.748| |.x.749| |.x.750| |.x.751| |.x.752| |.x.753| |.x.754| |.x.755| |.x.756| |.x.757| |.x.758| |.x.759| |.x.760| |.x.761| |.x.762| |.x.763| |.x.764| |.x.765| |.x.766| |.loc.9| |.loc.10| |.loc.11| |.loc.12| |.xtv.1|))))
(assert (forall ((|hhv_ULTIMATE.start_L63_0_Int| Int) (|hbv_ULTIMATE.start_L53-3_1_Array_Int_Int| (Array Int Int)) (|hhv_ULTIMATE.start_L63_2_Array_Int_Int| (Array Int Int)) (|hhv_ULTIMATE.start_L63_3_Array_Int_Array_Int_Int| (Array Int Int)) (|hhv_ULTIMATE.start_L63_4_Array_Int_Array_Int_Int| (Array Int Int)) (|hhv_ULTIMATE.start_L63_5_Int| Int) (|hhv_ULTIMATE.start_L63_6_Int| Int) (|hhv_ULTIMATE.start_L63_7_Array_Int_Int| (Array Int Int)) (|hhv_ULTIMATE.start_L63_8_Array_Int_Int| (Array Int Int)) (|hhv_ULTIMATE.start_L63_9_Int| Int) (|hhv_ULTIMATE.start_L63_10_Int| Int) (|hhv_ULTIMATE.start_L63_11_Int| Int) (|hbv_ULTIMATE.start_L53-3_12_Int| Int) (|hbv_ULTIMATE.start_L53-3_13_Int| Int) (|hhv_ULTIMATE.start_L63_14_Int| Int) (|hhv_ULTIMATE.start_L63_15_Int| Int) (|hhv_ULTIMATE.start_L63_16_Int| Int) (|hhv_ULTIMATE.start_L63_17_Int| Int) (|hbv_ULTIMATE.start_L53-3_18_Int| Int) (|hhv_ULTIMATE.start_L63_19_Int| Int) (|hbv_ULTIMATE.start_L53-3_20_Int| Int) (|hhv_ULTIMATE.start_L63_21_Int| Int) (|hhv_ULTIMATE.start_L63_22_Int| Int) (|hhv_ULTIMATE.start_L63_23_Int| Int) (|hbv_ULTIMATE.start_L53-3_24_Int| Int) (|hhv_ULTIMATE.start_L63_25_Int| Int) (|hhv_ULTIMATE.start_L63_26_Bool| Bool) (|.loc.5| Bool) (|.loc.6| Bool) (|.loc.7| Bool) (|.loc.8| Bool) (|hbv_ULTIMATE.start_L-1_1_Array_Int_Int| (Array Int Int)) (|.x.750| Int) (|.x.748| (Array Int Int)) (|.x.746| Int) (|.x.744| (Array Int Int)) (|.x.740| Int) (|.x.742| (Array Int Int)) (|.x.757| Int) (|.x.760| Int) (|.x.766| Bool) (|.x.741| (Array Int Int)) (|.x.754| Int) (|.x.761| Int) (|.x.763| Int) (|.x.765| Int) (|.x.752| Int) (|.x.753| Int) (|.x.758| Int) (|.x.764| Int) (|.x.759| Int) (|.loc.10| Bool) (|.loc.11| Bool) (|.loc.12| Bool) (|.loc.9| Bool) (|.x.756| Int) (|.x.762| Int) (|.x.743| (Array Int Int)) (|.x.747| (Array Int Int)) (|.x.745| Int) (|.x.749| Int) (|.x.751| Int) (|.x.755| Int) (|.xtv.1| (Array Int Int))) (=> (state |hhv_ULTIMATE.start_L63_0_Int| |hbv_ULTIMATE.start_L53-3_1_Array_Int_Int| |hhv_ULTIMATE.start_L63_2_Array_Int_Int| |hhv_ULTIMATE.start_L63_3_Array_Int_Array_Int_Int| |hhv_ULTIMATE.start_L63_4_Array_Int_Array_Int_Int| |hhv_ULTIMATE.start_L63_5_Int| |hhv_ULTIMATE.start_L63_6_Int| |hhv_ULTIMATE.start_L63_7_Array_Int_Int| |hhv_ULTIMATE.start_L63_8_Array_Int_Int| |hhv_ULTIMATE.start_L63_9_Int| |hhv_ULTIMATE.start_L63_10_Int| |hhv_ULTIMATE.start_L63_11_Int| |hbv_ULTIMATE.start_L53-3_12_Int| |hbv_ULTIMATE.start_L53-3_13_Int| |hhv_ULTIMATE.start_L63_14_Int| |hhv_ULTIMATE.start_L63_15_Int| |hhv_ULTIMATE.start_L63_16_Int| |hhv_ULTIMATE.start_L63_17_Int| |hbv_ULTIMATE.start_L53-3_18_Int| |hhv_ULTIMATE.start_L63_19_Int| |hbv_ULTIMATE.start_L53-3_20_Int| |hhv_ULTIMATE.start_L63_21_Int| |hhv_ULTIMATE.start_L63_22_Int| |hhv_ULTIMATE.start_L63_23_Int| |hbv_ULTIMATE.start_L53-3_24_Int| |hhv_ULTIMATE.start_L63_25_Int| |hhv_ULTIMATE.start_L63_26_Bool| |.loc.5| |.loc.6| |.loc.7| |.loc.8| |hbv_ULTIMATE.start_L-1_1_Array_Int_Int|) (not (and hhv_ULTIMATE.start_L63_26_Bool (and .loc.8 (and .loc.7 (and .loc.6 (not .loc.5)))))))))
(check-sat)
